HFVRP/X176-FSMFD.vrp
NAME: X176-FSMFD
COMMENT: Generated by Uchoa, Pecin, Pessoa, Poggi, Subramanian, and Vidal (2013). Modified by Sadykov, Pessoa and Uchoa (2017). Converted to PyVRP's VRPLIB dialect.
TYPE: HFVRP
DIMENSION: 176
VEHICLES: 525
EDGE_WEIGHT_TYPE: EUC_2D
NODE_COORD_SECTION
1	0	0
2	628	103
3	291	573
4	129	447
5	973	643
6	830	868
7	398	563
8	731	423
9	201	995
10	167	174
11	13	605
12	446	262
13	229	774
14	740	231
15	21	546
16	224	615
17	605	837
18	473	759
19	758	880
20	93	900
21	580	935
22	622	494
23	513	236
24	659	797
25	606	204
26	267	688
27	28	888
28	606	754
29	841	676
30	823	611
31	1	247
32	195	486
33	644	771
34	524	45
35	581	366
36	769	471
37	78	800
38	940	790
39	867	441
40	243	453
41	410	464
42	465	161
43	417	304
44	616	944
45	609	356
46	822	489
47	738	932
48	462	718
49	847	459
50	563	619
51	792	940
52	434	318
53	1000	647
54	566	413
55	492	83
56	764	550
57	145	182
58	540	249
59	208	760
60	759	988
61	66	221
62	520	521
63	260	508
64	307	468
65	747	308
66	370	136
67	421	505
68	373	597
69	876	881
70	281	18
71	419	69
72	502	242
73	343	764
74	275	610
75	434	161
76	314	40
77	744	675
78	698	364
79	600	881
80	9	893
81	875	724
82	728	253
83	502	969
84	867	464
85	237	907
86	868	263
87	680	306
88	740	688
89	534	615
90	450	898
91	126	415
92	565	260
93	172	126
94	137	674
95	789	958
96	853	147
97	762	111
98	416	626
99	63	237
100	194	75
101	616	133
102	104	804
103	304	699
104	758	40
105	249	141
106	848	770
107	316	426
108	791	803
109	884	980
110	618	107
111	858	644
112	116	388
113	939	880
114	217	912
115	138	217
116	639	588
117	542	965
118	775	294
119	325	154
120	839	459
121	21	751
122	248	883
123	34	101
124	274	824
125	408	641
126	923	320
127	838	846
128	83	772
129	938	432
130	913	766
131	758	816
132	481	156
133	548	809
134	660	393
135	773	579
136	261	97
137	380	849
138	433	893
139	312	347
140	295	480
141	277	519
142	833	970
143	760	470
144	33	455
145	289	176
146	283	845
147	953	937
148	2	939
149	164	71
150	539	756
151	679	880
152	309	113
153	857	842
154	184	455
155	181	70
156	136	928
157	23	17
158	127	710
159	657	422
160	248	593
161	525	519
162	109	805
163	754	487
164	484	90
165	923	157
166	195	38
167	74	961
168	261	663
169	984	135
170	281	227
171	673	176
172	78	322
173	177	543
174	590	199
175	559	609
176	9	343
DEMAND_SECTION
1	0
2	94
3	65
4	69
5	89
6	74
7	95
8	87
9	96
10	56
11	94
12	79
13	91
14	75
15	54
16	97
17	93
18	81
19	100
20	75
21	56
22	71
23	100
24	54
25	100
26	62
27	51
28	58
29	79
30	65
31	52
32	65
33	65
34	59
35	77
36	89
37	66
38	71
39	10
40	10
41	1
42	9
43	4
44	9
45	8
46	4
47	8
48	7
49	9
50	10
51	6
52	2
53	6
54	9
55	5
56	3
57	4
58	5
59	6
60	6
61	6
62	1
63	8
64	9
65	6
66	5
67	8
68	5
69	9
70	2
71	3
72	9
73	9
74	4
75	2
76	2
77	10
78	9
79	9
80	8
81	8
82	9
83	9
84	6
85	6
86	8
87	9
88	7
89	10
90	10
91	1
92	7
93	4
94	1
95	6
96	5
97	5
98	8
99	4
100	6
101	7
102	10
103	10
104	6
105	6
106	8
107	7
108	8
109	8
110	2
111	8
112	7
113	9
114	6
115	10
116	2
117	4
118	3
119	2
120	5
121	1
122	1
123	7
124	6
125	4
126	5
127	9
128	4
129	2
130	6
131	4
132	4
133	9
134	1
135	3
136	4
137	4
138	4
139	9
140	9
141	3
142	6
143	6
144	4
145	4
146	3
147	3
148	1
149	3
150	8
151	9
152	2
153	9
154	1
155	9
156	7
157	8
158	7
159	7
160	8
161	9
162	10
163	3
164	2
165	9
166	8
167	6
168	7
169	7
170	5
171	3
172	9
173	9
174	4
175	7
176	4
CAPACITY_SECTION
1	45
2	45
3	45
4	45
5	45
6	45
7	45
8	45
9	45
10	45
11	45
12	45
13	45
14	45
15	45
16	45
17	45
18	45
19	45
20	45
21	45
22	45
23	45
24	45
25	45
26	45
27	45
28	45
29	45
30	45
31	45
32	45
33	45
34	45
35	45
36	45
37	45
38	45
39	45
40	45
41	45
42	45
43	45
44	45
45	45
46	45
47	45
48	45
49	45
50	45
51	45
52	45
53	45
54	45
55	45
56	45
57	45
58	45
59	45
60	45
61	45
62	45
63	45
64	45
65	45
66	45
67	45
68	45
69	45
70	45
71	45
72	45
73	45
74	45
75	45
76	45
77	45
78	45
79	45
80	45
81	45
82	45
83	45
84	45
85	45
86	45
87	45
88	45
89	45
90	45
91	45
92	45
93	45
94	45
95	45
96	45
97	45
98	45
99	45
100	45
101	45
102	45
103	45
104	45
105	45
106	45
107	45
108	45
109	45
110	45
111	45
112	45
113	45
114	45
115	45
116	45
117	45
118	45
119	45
120	45
121	45
122	45
123	45
124	45
125	45
126	45
127	45
128	45
129	45
130	45
131	45
132	45
133	45
134	45
135	45
136	45
137	45
138	45
139	45
140	45
141	45
142	45
143	45
144	45
145	45
146	45
147	45
148	45
149	45
150	45
151	45
152	45
153	45
154	45
155	45
156	45
157	45
158	45
159	45
160	45
161	45
162	45
163	45
164	45
165	45
166	45
167	45
168	45
169	45
170	45
171	45
172	45
173	45
174	45
175	45
176	110
177	110
178	110
179	110
180	110
181	110
182	110
183	110
184	110
185	110
186	110
187	110
188	110
189	110
190	110
191	110
192	110
193	110
194	110
195	110
196	110
197	110
198	110
199	110
200	110
201	110
202	110
203	110
204	110
205	110
206	110
207	110
208	110
209	110
210	110
211	110
212	110
213	110
214	110
215	110
216	110
217	110
218	110
219	110
220	110
221	110
222	110
223	110
224	110
225	110
226	110
227	110
228	110
229	110
230	110
231	110
232	110
233	110
234	110
235	110
236	110
237	110
238	110
239	110
240	110
241	110
242	110
243	110
244	110
245	110
246	110
247	110
248	110
249	110
250	110
251	110
252	110
253	110
254	110
255	110
256	110
257	110
258	110
259	110
260	110
261	110
262	110
263	110
264	110
265	110
266	110
267	110
268	110
269	110
270	110
271	110
272	110
273	110
274	110
275	110
276	110
277	110
278	110
279	110
280	110
281	110
282	110
283	110
284	110
285	110
286	110
287	110
288	110
289	110
290	110
291	110
292	110
293	110
294	110
295	110
296	110
297	110
298	110
299	110
300	110
301	110
302	110
303	110
304	110
305	110
306	110
307	110
308	110
309	110
310	110
311	110
312	110
313	110
314	110
315	110
316	110
317	110
318	110
319	110
320	110
321	110
322	110
323	110
324	110
325	110
326	110
327	110
328	110
329	110
330	110
331	110
332	110
333	110
334	110
335	110
336	110
337	110
338	110
339	110
340	110
341	110
342	110
343	110
344	110
345	110
346	110
347	110
348	110
349	110
350	110
351	270
352	270
353	270
354	270
355	270
356	270
357	270
358	270
359	270
360	270
361	270
362	270
363	270
364	270
365	270
366	270
367	270
368	270
369	270
370	270
371	270
372	270
373	270
374	270
375	270
376	270
377	270
378	270
379	270
380	270
381	270
382	270
383	270
384	270
385	270
386	270
387	270
388	270
389	270
390	270
391	270
392	270
393	270
394	270
395	270
396	270
397	270
398	270
399	270
400	270
401	270
402	270
403	270
404	270
405	270
406	270
407	270
408	270
409	270
410	270
411	270
412	270
413	270
414	270
415	270
416	270
417	270
418	270
419	270
420	270
421	270
422	270
423	270
424	270
425	270
426	270
427	270
428	270
429	270
430	270
431	270
432	270
433	270
434	270
435	270
436	270
437	270
438	270
439	270
440	270
441	270
442	270
443	270
444	270
445	270
446	270
447	270
448	270
449	270
450	270
451	270
452	270
453	270
454	270
455	270
456	270
457	270
458	270
459	270
460	270
461	270
462	270
463	270
464	270
465	270
466	270
467	270
468	270
469	270
470	270
471	270
472	270
473	270
474	270
475	270
476	270
477	270
478	270
479	270
480	270
481	270
482	270
483	270
484	270
485	270
486	270
487	270
488	270
489	270
490	270
491	270
492	270
493	270
494	270
495	270
496	270
497	270
498	270
499	270
500	270
501	270
502	270
503	270
504	270
505	270
506	270
507	270
508	270
509	270
510	270
511	270
512	270
513	270
514	270
515	270
516	270
517	270
518	270
519	270
520	270
521	270
522	270
523	270
524	270
525	270
VEHICLES_FIXED_COST_SECTION
1	42000
2	42000
3	42000
4	42000
5	42000
6	42000
7	42000
8	42000
9	42000
10	42000
11	42000
12	42000
13	42000
14	42000
15	42000
16	42000
17	42000
18	42000
19	42000
20	42000
21	42000
22	42000
23	42000
24	42000
25	42000
26	42000
27	42000
28	42000
29	42000
30	42000
31	42000
32	42000
33	42000
34	42000
35	42000
36	42000
37	42000
38	42000
39	42000
40	42000
41	42000
42	42000
43	42000
44	42000
45	42000
46	42000
47	42000
48	42000
49	42000
50	42000
51	42000
52	42000
53	42000
54	42000
55	42000
56	42000
57	42000
58	42000
59	42000
60	42000
61	42000
62	42000
63	42000
64	42000
65	42000
66	42000
67	42000
68	42000
69	42000
70	42000
71	42000
72	42000
73	42000
74	42000
75	42000
76	42000
77	42000
78	42000
79	42000
80	42000
81	42000
82	42000
83	42000
84	42000
85	42000
86	42000
87	42000
88	42000
89	42000
90	42000
91	42000
92	42000
93	42000
94	42000
95	42000
96	42000
97	42000
98	42000
99	42000
100	42000
101	42000
102	42000
103	42000
104	42000
105	42000
106	42000
107	42000
108	42000
109	42000
110	42000
111	42000
112	42000
113	42000
114	42000
115	42000
116	42000
117	42000
118	42000
119	42000
120	42000
121	42000
122	42000
123	42000
124	42000
125	42000
126	42000
127	42000
128	42000
129	42000
130	42000
131	42000
132	42000
133	42000
134	42000
135	42000
136	42000
137	42000
138	42000
139	42000
140	42000
141	42000
142	42000
143	42000
144	42000
145	42000
146	42000
147	42000
148	42000
149	42000
150	42000
151	42000
152	42000
153	42000
154	42000
155	42000
156	42000
157	42000
158	42000
159	42000
160	42000
161	42000
162	42000
163	42000
164	42000
165	42000
166	42000
167	42000
168	42000
169	42000
170	42000
171	42000
172	42000
173	42000
174	42000
175	42000
176	125800
177	125800
178	125800
179	125800
180	125800
181	125800
182	125800
183	125800
184	125800
185	125800
186	125800
187	125800
188	125800
189	125800
190	125800
191	125800
192	125800
193	125800
194	125800
195	125800
196	125800
197	125800
198	125800
199	125800
200	125800
201	125800
202	125800
203	125800
204	125800
205	125800
206	125800
207	125800
208	125800
209	125800
210	125800
211	125800
212	125800
213	125800
214	125800
215	125800
216	125800
217	125800
218	125800
219	125800
220	125800
221	125800
222	125800
223	125800
224	125800
225	125800
226	125800
227	125800
228	125800
229	125800
230	125800
231	125800
232	125800
233	125800
234	125800
235	125800
236	125800
237	125800
238	125800
239	125800
240	125800
241	125800
242	125800
243	125800
244	125800
245	125800
246	125800
247	125800
248	125800
249	125800
250	125800
251	125800
252	125800
253	125800
254	125800
255	125800
256	125800
257	125800
258	125800
259	125800
260	125800
261	125800
262	125800
263	125800
264	125800
265	125800
266	125800
267	125800
268	125800
269	125800
270	125800
271	125800
272	125800
273	125800
274	125800
275	125800
276	125800
277	125800
278	125800
279	125800
280	125800
281	125800
282	125800
283	125800
284	125800
285	125800
286	125800
287	125800
288	125800
289	125800
290	125800
291	125800
292	125800
293	125800
294	125800
295	125800
296	125800
297	125800
298	125800
299	125800
300	125800
301	125800
302	125800
303	125800
304	125800
305	125800
306	125800
307	125800
308	125800
309	125800
310	125800
311	125800
312	125800
313	125800
314	125800
315	125800
316	125800
317	125800
318	125800
319	125800
320	125800
321	125800
322	125800
323	125800
324	125800
325	125800
326	125800
327	125800
328	125800
329	125800
330	125800
331	125800
332	125800
333	125800
334	125800
335	125800
336	125800
337	125800
338	125800
339	125800
340	125800
341	125800
342	125800
343	125800
344	125800
345	125800
346	125800
347	125800
348	125800
349	125800
350	125800
351	361200
352	361200
353	361200
354	361200
355	361200
356	361200
357	361200
358	361200
359	361200
360	361200
361	361200
362	361200
363	361200
364	361200
365	361200
366	361200
367	361200
368	361200
369	361200
370	361200
371	361200
372	361200
373	361200
374	361200
375	361200
376	361200
377	361200
378	361200
379	361200
380	361200
381	361200
382	361200
383	361200
384	361200
385	361200
386	361200
387	361200
388	361200
389	361200
390	361200
391	361200
392	361200
393	361200
394	361200
395	361200
396	361200
397	361200
398	361200
399	361200
400	361200
401	361200
402	361200
403	361200
404	361200
405	361200
406	361200
407	361200
408	361200
409	361200
410	361200
411	361200
412	361200
413	361200
414	361200
415	361200
416	361200
417	361200
418	361200
419	361200
420	361200
421	361200
422	361200
423	361200
424	361200
425	361200
426	361200
427	361200
428	361200
429	361200
430	361200
431	361200
432	361200
433	361200
434	361200
435	361200
436	361200
437	361200
438	361200
439	361200
440	361200
441	361200
442	361200
443	361200
444	361200
445	361200
446	361200
447	361200
448	361200
449	361200
450	361200
451	361200
452	361200
453	361200
454	361200
455	361200
456	361200
457	361200
458	361200
459	361200
460	361200
461	361200
462	361200
463	361200
464	361200
465	361200
466	361200
467	361200
468	361200
469	361200
470	361200
471	361200
472	361200
473	361200
474	361200
475	361200
476	361200
477	361200
478	361200
479	361200
480	361200
481	361200
482	361200
483	361200
484	361200
485	361200
486	361200
487	361200
488	361200
489	361200
490	361200
491	361200
492	361200
493	361200
494	361200
495	361200
496	361200
497	361200
498	361200
499	361200
500	361200
501	361200
502	361200
503	361200
504	361200
505	361200
506	361200
507	361200
508	361200
509	361200
510	361200
511	361200
512	361200
513	361200
514	361200
515	361200
516	361200
517	361200
518	361200
519	361200
520	361200
521	361200
522	361200
523	361200
524	361200
525	361200
VEHICLES_UNIT_DISTANCE_COST_SECTION
1	41
2	41
3	41
4	41
5	41
6	41
7	41
8	41
9	41
10	41
11	41
12	41
13	41
14	41
15	41
16	41
17	41
18	41
19	41
20	41
21	41
22	41
23	41
24	41
25	41
26	41
27	41
28	41
29	41
30	41
31	41
32	41
33	41
34	41
35	41
36	41
37	41
38	41
39	41
40	41
41	41
42	41
43	41
44	41
45	41
46	41
47	41
48	41
49	41
50	41
51	41
52	41
53	41
54	41
55	41
56	41
57	41
58	41
59	41
60	41
61	41
62	41
63	41
64	41
65	41
66	41
67	41
68	41
69	41
70	41
71	41
72	41
73	41
74	41
75	41
76	41
77	41
78	41
79	41
80	41
81	41
82	41
83	41
84	41
85	41
86	41
87	41
88	41
89	41
90	41
91	41
92	41
93	41
94	41
95	41
96	41
97	41
98	41
99	41
100	41
101	41
102	41
103	41
104	41
105	41
106	41
107	41
108	41
109	41
110	41
111	41
112	41
113	41
114	41
115	41
116	41
117	41
118	41
119	41
120	41
121	41
122	41
123	41
124	41
125	41
126	41
127	41
128	41
129	41
130	41
131	41
132	41
133	41
134	41
135	41
136	41
137	41
138	41
139	41
140	41
141	41
142	41
143	41
144	41
145	41
146	41
147	41
148	41
149	41
150	41
151	41
152	41
153	41
154	41
155	41
156	41
157	41
158	41
159	41
160	41
161	41
162	41
163	41
164	41
165	41
166	41
167	41
168	41
169	41
170	41
171	41
172	41
173	41
174	41
175	41
176	100
177	100
178	100
179	100
180	100
181	100
182	100
183	100
184	100
185	100
186	100
187	100
188	100
189	100
190	100
191	100
192	100
193	100
194	100
195	100
196	100
197	100
198	100
199	100
200	100
201	100
202	100
203	100
204	100
205	100
206	100
207	100
208	100
209	100
210	100
211	100
212	100
213	100
214	100
215	100
216	100
217	100
218	100
219	100
220	100
221	100
222	100
223	100
224	100
225	100
226	100
227	100
228	100
229	100
230	100
231	100
232	100
233	100
234	100
235	100
236	100
237	100
238	100
239	100
240	100
241	100
242	100
243	100
244	100
245	100
246	100
247	100
248	100
249	100
250	100
251	100
252	100
253	100
254	100
255	100
256	100
257	100
258	100
259	100
260	100
261	100
262	100
263	100
264	100
265	100
266	100
267	100
268	100
269	100
270	100
271	100
272	100
273	100
274	100
275	100
276	100
277	100
278	100
279	100
280	100
281	100
282	100
283	100
284	100
285	100
286	100
287	100
288	100
289	100
290	100
291	100
292	100
293	100
294	100
295	100
296	100
297	100
298	100
299	100
300	100
301	100
302	100
303	100
304	100
305	100
306	100
307	100
308	100
309	100
310	100
311	100
312	100
313	100
314	100
315	100
316	100
317	100
318	100
319	100
320	100
321	100
322	100
323	100
324	100
325	100
326	100
327	100
328	100
329	100
330	100
331	100
332	100
333	100
334	100
335	100
336	100
337	100
338	100
339	100
340	100
341	100
342	100
343	100
344	100
345	100
346	100
347	100
348	100
349	100
350	100
351	245
352	245
353	245
354	245
355	245
356	245
357	245
358	245
359	245
360	245
361	245
362	245
363	245
364	245
365	245
366	245
367	245
368	245
369	245
370	245
371	245
372	245
373	245
374	245
375	245
376	245
377	245
378	245
379	245
380	245
381	245
382	245
383	245
384	245
385	245
386	245
387	245
388	245
389	245
390	245
391	245
392	245
393	245
394	245
395	245
396	245
397	245
398	245
399	245
400	245
401	245
402	245
403	245
404	245
405	245
406	245
407	245
408	245
409	245
410	245
411	245
412	245
413	245
414	245
415	245
416	245
417	245
418	245
419	245
420	245
421	245
422	245
423	245
424	245
425	245
426	245
427	245
428	245
429	245
430	245
431	245
432	245
433	245
434	245
435	245
436	245
437	245
438	245
439	245
440	245
441	245
442	245
443	245
444	245
445	245
446	245
447	245
448	245
449	245
450	245
451	245
452	245
453	245
454	245
455	245
456	245
457	245
458	245
459	245
460	245
461	245
462	245
463	245
464	245
465	245
466	245
467	245
468	245
469	245
470	245
471	245
472	245
473	245
474	245
475	245
476	245
477	245
478	245
479	245
480	245
481	245
482	245
483	245
484	245
485	245
486	245
487	245
488	245
489	245
490	245
491	245
492	245
493	245
494	245
495	245
496	245
497	245
498	245
499	245
500	245
501	245
502	245
503	245
504	245
505	245
506	245
507	245
508	245
509	245
510	245
511	245
512	245
513	245
514	245
515	245
516	245
517	245
518	245
519	245
520	245
521	245
522	245
523	245
524	245
525	245
DEPOT_SECTION
1
EOF
